Pore {

  ### LAMMPS commands for initialization
  ### (These can be overridden later.)


  write_once("In Init") {
    atom_style full
  }

  write_once("In Settings") {
    pair_coeff @atom:oh @atom:oh 0.15540000000 3.1655700000
    pair_coeff @atom:oz @atom:oz 0.15540000000 3.1655700000
    pair_coeff @atom:sz @atom:sz 0.00000184050 3.3020000000
    pair_coeff @atom:ho @atom:ho 0.00000000000 0.0000000000
  }

  write_once("In Settings") {
    bond_coeff @bond:type1 554.1349 1.0000
  }

  write_once("In Settings") {
    angle_coeff @angle:type1 30.0 109.47
  }


  ### DATA sections


  write_once("Data Masses") {
    @atom:oh 15.999400
    @atom:oz 15.999400
    @atom:sz 28.085500
    @atom:ho 1.007970
  }

  write("Data Atoms") {
    $atom:oh_1 $mol:m1 @atom:oh -0.950000 6.74145498 4.629561064 5.089327241
    $atom:oh_2 $mol:m1 @atom:oh -0.950000 1.762907387 4.629561064 5.631333908
    $atom:oh_3 $mol:m1 @atom:oh -0.950000 15.245817346 4.629561064 5.089327241
    $atom:oh_4 $mol:m1 @atom:oh -0.950000 10.267269753 4.629561064 5.631333908
    $atom:oh_5 $mol:m1 @atom:oh -0.950000 23.750179712 4.629561064 5.089327241
    $atom:oh_6 $mol:m1 @atom:oh -0.950000 18.771632119 4.629561064 5.631333908
    $atom:oz_1 $mol:m1 @atom:oz -1.050000 0.63859 6.576935901 1.487993908000007
    $atom:oz_2 $mol:m1 @atom:oz -1.050000 4.890771183 9.031933852 1.487993908000007
    $atom:oz_3 $mol:m1 @atom:oz -1.050000 2.489273797 7.084559015 5.089327241
    $atom:oz_4 $mol:m1 @atom:oz -1.050000 6.74145498 9.539556966 5.089327241
    $atom:oz_5 $mol:m1 @atom:oz -1.050000 1.124317387 8.43348664 3.288660574
    $atom:oz_6 $mol:m1 @atom:oz -1.050000 5.37649857 5.97848869 3.288660574
    $atom:oz_7 $mol:m1 @atom:oz -1.050000 1.762907387 9.539556966 5.631333908
    $atom:oz_8 $mol:m1 @atom:oz -1.050000 6.01508857 7.084559015 5.631333908
    $atom:oz_9 $mol:m1 @atom:oz -1.050000 3.127863797 5.97848869 2.030000573999999
    $atom:oz_10 $mol:m1 @atom:oz -1.050000 7.38004498 8.43348664 2.030000573999999
    $atom:oz_11 $mol:m1 @atom:oz -1.050000 3.613591183 9.031933852 3.830667241
    $atom:oz_12 $mol:m1 @atom:oz -1.050000 7.865772366 6.576935901 3.830667241
    $atom:sz_1 $mol:m1 @atom:sz 2.100000 2.044366722 6.090311579 0.8586639079999969
    $atom:sz_2 $mol:m1 @atom:sz 2.100000 6.296547905 8.54530953 0.8586639079999969
    $atom:sz_3 $mol:m1 @atom:sz 2.100000 2.207814461 8.54530953 4.459997241
    $atom:sz_4 $mol:m1 @atom:sz 2.100000 6.459995644 6.090311579 4.459997241
    $atom:sz_5 $mol:m1 @atom:sz 2.100000 0.0 7.459360448 2.659330574
    $atom:sz_6 $mol:m1 @atom:sz 2.100000 4.252181183 5.004362497 2.659330574
    $atom:oz_13 $mol:m1 @atom:oz -1.050000 9.142952366 6.576935901 1.487993908000007
    $atom:oz_14 $mol:m1 @atom:oz -1.050000 13.395133549 9.031933852 1.487993908000007
    $atom:oz_15 $mol:m1 @atom:oz -1.050000 10.993636163 7.084559015 5.089327241
    $atom:oz_16 $mol:m1 @atom:oz -1.050000 15.245817346 9.539556966 5.089327241
    $atom:oz_17 $mol:m1 @atom:oz -1.050000 9.628679753 8.43348664 3.288660574
    $atom:oz_18 $mol:m1 @atom:oz -1.050000 13.880860936 5.97848869 3.288660574
    $atom:oz_19 $mol:m1 @atom:oz -1.050000 10.267269753 9.539556966 5.631333908
    $atom:oz_20 $mol:m1 @atom:oz -1.050000 14.519450936 7.084559015 5.631333908
    $atom:oz_21 $mol:m1 @atom:oz -1.050000 11.632226163 5.97848869 2.030000573999999
    $atom:oz_22 $mol:m1 @atom:oz -1.050000 15.884407346 8.43348664 2.030000573999999
    $atom:oz_23 $mol:m1 @atom:oz -1.050000 12.117953549 9.031933852 3.830667241
    $atom:oz_24 $mol:m1 @atom:oz -1.050000 16.370134733 6.576935901 3.830667241
    $atom:sz_7 $mol:m1 @atom:sz 2.100000 10.548729088 6.090311579 0.8586639079999969
    $atom:sz_8 $mol:m1 @atom:sz 2.100000 14.800910272 8.54530953 0.8586639079999969
    $atom:sz_9 $mol:m1 @atom:sz 2.100000 10.712176827 8.54530953 4.459997241
    $atom:sz_10 $mol:m1 @atom:sz 2.100000 14.96435801 6.090311579 4.459997241
    $atom:sz_11 $mol:m1 @atom:sz 2.100000 8.504362366 7.459360448 2.659330574
    $atom:sz_12 $mol:m1 @atom:sz 2.100000 12.756543549 5.004362497 2.659330574
    $atom:oz_25 $mol:m1 @atom:oz -1.050000 17.647314733 6.576935901 1.487993908000007
    $atom:oz_26 $mol:m1 @atom:oz -1.050000 21.899495916 9.031933852 1.487993908000007
    $atom:oz_27 $mol:m1 @atom:oz -1.050000 19.497998529 7.084559015 5.089327241
    $atom:oz_28 $mol:m1 @atom:oz -1.050000 23.750179712 9.539556966 5.089327241
    $atom:oz_29 $mol:m1 @atom:oz -1.050000 18.133042119 8.43348664 3.288660574
    $atom:oz_30 $mol:m1 @atom:oz -1.050000 22.385223302 5.97848869 3.288660574
    $atom:oz_31 $mol:m1 @atom:oz -1.050000 18.771632119 9.539556966 5.631333908
    $atom:oz_32 $mol:m1 @atom:oz -1.050000 23.023813302 7.084559015 5.631333908
    $atom:oz_33 $mol:m1 @atom:oz -1.050000 20.136588529 5.97848869 2.030000573999999
    $atom:oz_34 $mol:m1 @atom:oz -1.050000 24.388769712 8.43348664 2.030000573999999
    $atom:oz_35 $mol:m1 @atom:oz -1.050000 20.622315916 9.031933852 3.830667241
    $atom:oz_36 $mol:m1 @atom:oz -1.050000 24.874497099 6.576935901 3.830667241
    $atom:sz_13 $mol:m1 @atom:sz 2.100000 19.053091455 6.090311579 0.8586639079999969
    $atom:sz_14 $mol:m1 @atom:sz 2.100000 23.305272638 8.54530953 0.8586639079999969
    $atom:sz_15 $mol:m1 @atom:sz 2.100000 19.216539194 8.54530953 4.459997241
    $atom:sz_16 $mol:m1 @atom:sz 2.100000 23.468720377 6.090311579 4.459997241
    $atom:sz_17 $mol:m1 @atom:sz 2.100000 17.008724733 7.459360448 2.659330574
    $atom:sz_18 $mol:m1 @atom:sz 2.100000 21.260905916 5.004362497 2.659330574
    $atom:oz_37 $mol:m1 @atom:oz -1.050000 0.63859 11.486931803 1.487993908000007
    $atom:oz_38 $mol:m1 @atom:oz -1.050000 4.890771183 13.941929754 1.487993908000007
    $atom:oz_39 $mol:m1 @atom:oz -1.050000 2.489273797 11.994554916 5.089327241
    $atom:oz_40 $mol:m1 @atom:oz -1.050000 6.74145498 14.449552867 5.089327241
    $atom:oz_41 $mol:m1 @atom:oz -1.050000 1.124317387 13.343482542 3.288660574
    $atom:oz_42 $mol:m1 @atom:oz -1.050000 5.37649857 10.888484591 3.288660574
    $atom:oz_43 $mol:m1 @atom:oz -1.050000 1.762907387 14.449552867 5.631333908
    $atom:oz_44 $mol:m1 @atom:oz -1.050000 6.01508857 11.994554916 5.631333908
    $atom:oz_45 $mol:m1 @atom:oz -1.050000 3.127863797 10.888484591 2.030000573999999
    $atom:oz_46 $mol:m1 @atom:oz -1.050000 7.38004498 13.343482542 2.030000573999999
    $atom:oz_47 $mol:m1 @atom:oz -1.050000 3.613591183 13.941929754 3.830667241
    $atom:oz_48 $mol:m1 @atom:oz -1.050000 7.865772366 11.486931803 3.830667241
    $atom:sz_19 $mol:m1 @atom:sz 2.100000 2.044366722 11.00030748 0.8586639079999969
    $atom:sz_20 $mol:m1 @atom:sz 2.100000 6.296547905 13.455305431 0.8586639079999969
    $atom:sz_21 $mol:m1 @atom:sz 2.100000 2.207814461 13.455305431 4.459997241
    $atom:sz_22 $mol:m1 @atom:sz 2.100000 6.459995644 11.00030748 4.459997241
    $atom:sz_23 $mol:m1 @atom:sz 2.100000 0.0 12.36935635 2.659330574
    $atom:sz_24 $mol:m1 @atom:sz 2.100000 4.252181183 9.914358399 2.659330574
    $atom:oz_49 $mol:m1 @atom:oz -1.050000 9.142952366 11.486931803 1.487993908000007
    $atom:oz_50 $mol:m1 @atom:oz -1.050000 13.395133549 13.941929754 1.487993908000007
    $atom:oz_51 $mol:m1 @atom:oz -1.050000 10.993636163 11.994554916 5.089327241
    $atom:oz_52 $mol:m1 @atom:oz -1.050000 15.245817346 14.449552867 5.089327241
    $atom:oz_53 $mol:m1 @atom:oz -1.050000 9.628679753 13.343482542 3.288660574
    $atom:oz_54 $mol:m1 @atom:oz -1.050000 13.880860936 10.888484591 3.288660574
    $atom:oz_55 $mol:m1 @atom:oz -1.050000 10.267269753 14.449552867 5.631333908
    $atom:oz_56 $mol:m1 @atom:oz -1.050000 14.519450936 11.994554916 5.631333908
    $atom:oz_57 $mol:m1 @atom:oz -1.050000 11.632226163 10.888484591 2.030000573999999
    $atom:oz_58 $mol:m1 @atom:oz -1.050000 15.884407346 13.343482542 2.030000573999999
    $atom:oz_59 $mol:m1 @atom:oz -1.050000 12.117953549 13.941929754 3.830667241
    $atom:oz_60 $mol:m1 @atom:oz -1.050000 16.370134733 11.486931803 3.830667241
    $atom:sz_25 $mol:m1 @atom:sz 2.100000 10.548729088 11.00030748 0.8586639079999969
    $atom:sz_26 $mol:m1 @atom:sz 2.100000 14.800910272 13.455305431 0.8586639079999969
    $atom:sz_27 $mol:m1 @atom:sz 2.100000 10.712176827 13.455305431 4.459997241
    $atom:sz_28 $mol:m1 @atom:sz 2.100000 14.96435801 11.00030748 4.459997241
    $atom:sz_29 $mol:m1 @atom:sz 2.100000 8.504362366 12.36935635 2.659330574
    $atom:sz_30 $mol:m1 @atom:sz 2.100000 12.756543549 9.914358399 2.659330574
    $atom:oz_61 $mol:m1 @atom:oz -1.050000 17.647314733 11.486931803 1.487993908000007
    $atom:oz_62 $mol:m1 @atom:oz -1.050000 21.899495916 13.941929754 1.487993908000007
    $atom:oz_63 $mol:m1 @atom:oz -1.050000 19.497998529 11.994554916 5.089327241
    $atom:oz_64 $mol:m1 @atom:oz -1.050000 23.750179712 14.449552867 5.089327241
    $atom:oz_65 $mol:m1 @atom:oz -1.050000 18.133042119 13.343482542 3.288660574
    $atom:oz_66 $mol:m1 @atom:oz -1.050000 22.385223302 10.888484591 3.288660574
    $atom:oz_67 $mol:m1 @atom:oz -1.050000 18.771632119 14.449552867 5.631333908
    $atom:oz_68 $mol:m1 @atom:oz -1.050000 23.023813302 11.994554916 5.631333908
    $atom:oz_69 $mol:m1 @atom:oz -1.050000 20.136588529 10.888484591 2.030000573999999
    $atom:oz_70 $mol:m1 @atom:oz -1.050000 24.388769712 13.343482542 2.030000573999999
    $atom:oz_71 $mol:m1 @atom:oz -1.050000 20.622315916 13.941929754 3.830667241
    $atom:oz_72 $mol:m1 @atom:oz -1.050000 24.874497099 11.486931803 3.830667241
    $atom:sz_31 $mol:m1 @atom:sz 2.100000 19.053091455 11.00030748 0.8586639079999969
    $atom:sz_32 $mol:m1 @atom:sz 2.100000 23.305272638 13.455305431 0.8586639079999969
    $atom:sz_33 $mol:m1 @atom:sz 2.100000 19.216539194 13.455305431 4.459997241
    $atom:sz_34 $mol:m1 @atom:sz 2.100000 23.468720377 11.00030748 4.459997241
    $atom:sz_35 $mol:m1 @atom:sz 2.100000 17.008724733 12.36935635 2.659330574
    $atom:sz_36 $mol:m1 @atom:sz 2.100000 21.260905916 9.914358399 2.659330574
    $atom:oz_73 $mol:m1 @atom:oz -1.050000 0.63859 16.396927704 1.487993908000007
    $atom:oz_74 $mol:m1 @atom:oz -1.050000 4.890771183 18.851925655 1.487993908000007
    $atom:oz_75 $mol:m1 @atom:oz -1.050000 2.489273797 16.904550818 5.089327241
    $atom:oz_76 $mol:m1 @atom:oz -1.050000 6.74145498 19.359548768 5.089327241
    $atom:oz_77 $mol:m1 @atom:oz -1.050000 1.124317387 18.253478443 3.288660574
    $atom:oz_78 $mol:m1 @atom:oz -1.050000 5.37649857 15.798480493 3.288660574
    $atom:oz_79 $mol:m1 @atom:oz -1.050000 1.762907387 19.359548768 5.631333908
    $atom:oz_80 $mol:m1 @atom:oz -1.050000 6.01508857 16.904550818 5.631333908
    $atom:oz_81 $mol:m1 @atom:oz -1.050000 3.127863797 15.798480493 2.030000573999999
    $atom:oz_82 $mol:m1 @atom:oz -1.050000 7.38004498 18.253478443 2.030000573999999
    $atom:oz_83 $mol:m1 @atom:oz -1.050000 3.613591183 18.851925655 3.830667241
    $atom:oz_84 $mol:m1 @atom:oz -1.050000 7.865772366 16.396927704 3.830667241
    $atom:sz_37 $mol:m1 @atom:sz 2.100000 2.044366722 15.910303382 0.8586639079999969
    $atom:sz_38 $mol:m1 @atom:sz 2.100000 6.296547905 18.365301332 0.8586639079999969
    $atom:sz_39 $mol:m1 @atom:sz 2.100000 2.207814461 18.365301332 4.459997241
    $atom:sz_40 $mol:m1 @atom:sz 2.100000 6.459995644 15.910303382 4.459997241
    $atom:sz_41 $mol:m1 @atom:sz 2.100000 0.0 17.279352251 2.659330574
    $atom:sz_42 $mol:m1 @atom:sz 2.100000 4.252181183 14.8243543 2.659330574
    $atom:oz_85 $mol:m1 @atom:oz -1.050000 9.142952366 16.396927704 1.487993908000007
    $atom:oz_86 $mol:m1 @atom:oz -1.050000 13.395133549 18.851925655 1.487993908000007
    $atom:oz_87 $mol:m1 @atom:oz -1.050000 10.993636163 16.904550818 5.089327241
    $atom:oz_88 $mol:m1 @atom:oz -1.050000 15.245817346 19.359548768 5.089327241
    $atom:oz_89 $mol:m1 @atom:oz -1.050000 9.628679753 18.253478443 3.288660574
    $atom:oz_90 $mol:m1 @atom:oz -1.050000 13.880860936 15.798480493 3.288660574
    $atom:oz_91 $mol:m1 @atom:oz -1.050000 10.267269753 19.359548768 5.631333908
    $atom:oz_92 $mol:m1 @atom:oz -1.050000 14.519450936 16.904550818 5.631333908
    $atom:oz_93 $mol:m1 @atom:oz -1.050000 11.632226163 15.798480493 2.030000573999999
    $atom:oz_94 $mol:m1 @atom:oz -1.050000 15.884407346 18.253478443 2.030000573999999
    $atom:oz_95 $mol:m1 @atom:oz -1.050000 12.117953549 18.851925655 3.830667241
    $atom:oz_96 $mol:m1 @atom:oz -1.050000 16.370134733 16.396927704 3.830667241
    $atom:sz_43 $mol:m1 @atom:sz 2.100000 10.548729088 15.910303382 0.8586639079999969
    $atom:sz_44 $mol:m1 @atom:sz 2.100000 14.800910272 18.365301332 0.8586639079999969
    $atom:sz_45 $mol:m1 @atom:sz 2.100000 10.712176827 18.365301332 4.459997241
    $atom:sz_46 $mol:m1 @atom:sz 2.100000 14.96435801 15.910303382 4.459997241
    $atom:sz_47 $mol:m1 @atom:sz 2.100000 8.504362366 17.279352251 2.659330574
    $atom:sz_48 $mol:m1 @atom:sz 2.100000 12.756543549 14.8243543 2.659330574
    $atom:oz_97 $mol:m1 @atom:oz -1.050000 17.647314733 16.396927704 1.487993908000007
    $atom:oz_98 $mol:m1 @atom:oz -1.050000 21.899495916 18.851925655 1.487993908000007
    $atom:oz_99 $mol:m1 @atom:oz -1.050000 19.497998529 16.904550818 5.089327241
    $atom:oz_100 $mol:m1 @atom:oz -1.050000 23.750179712 19.359548768 5.089327241
    $atom:oz_101 $mol:m1 @atom:oz -1.050000 18.133042119 18.253478443 3.288660574
    $atom:oz_102 $mol:m1 @atom:oz -1.050000 22.385223302 15.798480493 3.288660574
    $atom:oz_103 $mol:m1 @atom:oz -1.050000 18.771632119 19.359548768 5.631333908
    $atom:oz_104 $mol:m1 @atom:oz -1.050000 23.023813302 16.904550818 5.631333908
    $atom:oz_105 $mol:m1 @atom:oz -1.050000 20.136588529 15.798480493 2.030000573999999
    $atom:oz_106 $mol:m1 @atom:oz -1.050000 24.388769712 18.253478443 2.030000573999999
    $atom:oz_107 $mol:m1 @atom:oz -1.050000 20.622315916 18.851925655 3.830667241
    $atom:oz_108 $mol:m1 @atom:oz -1.050000 24.874497099 16.396927704 3.830667241
    $atom:sz_49 $mol:m1 @atom:sz 2.100000 19.053091455 15.910303382 0.8586639079999969
    $atom:sz_50 $mol:m1 @atom:sz 2.100000 23.305272638 18.365301332 0.8586639079999969
    $atom:sz_51 $mol:m1 @atom:sz 2.100000 19.216539194 18.365301332 4.459997241
    $atom:sz_52 $mol:m1 @atom:sz 2.100000 23.468720377 15.910303382 4.459997241
    $atom:sz_53 $mol:m1 @atom:sz 2.100000 17.008724733 17.279352251 2.659330574
    $atom:sz_54 $mol:m1 @atom:sz 2.100000 21.260905916 14.8243543 2.659330574
    $atom:oz_109 $mol:m1 @atom:oz -1.050000 0.63859 21.306923606 1.487993908000007
    $atom:oz_110 $mol:m1 @atom:oz -1.050000 4.890771183 23.761921557 1.487993908000007
    $atom:oz_111 $mol:m1 @atom:oz -1.050000 2.489273797 21.814546719 5.089327241
    $atom:oz_112 $mol:m1 @atom:oz -1.050000 6.74145498 24.26954467 5.089327241
    $atom:oz_113 $mol:m1 @atom:oz -1.050000 1.124317387 23.163474345 3.288660574
    $atom:oz_114 $mol:m1 @atom:oz -1.050000 5.37649857 20.708476394 3.288660574
    $atom:oz_115 $mol:m1 @atom:oz -1.050000 1.762907387 24.26954467 5.631333908
    $atom:oz_116 $mol:m1 @atom:oz -1.050000 6.01508857 21.814546719 5.631333908
    $atom:oz_117 $mol:m1 @atom:oz -1.050000 3.127863797 20.708476394 2.030000573999999
    $atom:oz_118 $mol:m1 @atom:oz -1.050000 7.38004498 23.163474345 2.030000573999999
    $atom:oz_119 $mol:m1 @atom:oz -1.050000 3.613591183 23.761921557 3.830667241
    $atom:oz_120 $mol:m1 @atom:oz -1.050000 7.865772366 21.306923606 3.830667241
    $atom:sz_55 $mol:m1 @atom:sz 2.100000 2.044366722 20.820299283 0.8586639079999969
    $atom:sz_56 $mol:m1 @atom:sz 2.100000 6.296547905 23.275297234 0.8586639079999969
    $atom:sz_57 $mol:m1 @atom:sz 2.100000 2.207814461 23.275297234 4.459997241
    $atom:sz_58 $mol:m1 @atom:sz 2.100000 6.459995644 20.820299283 4.459997241
    $atom:sz_59 $mol:m1 @atom:sz 2.100000 0.0 22.189348153 2.659330574
    $atom:sz_60 $mol:m1 @atom:sz 2.100000 4.252181183 19.734350202 2.659330574
    $atom:oz_121 $mol:m1 @atom:oz -1.050000 9.142952366 21.306923606 1.487993908000007
    $atom:oz_122 $mol:m1 @atom:oz -1.050000 13.395133549 23.761921557 1.487993908000007
    $atom:oz_123 $mol:m1 @atom:oz -1.050000 10.993636163 21.814546719 5.089327241
    $atom:oz_124 $mol:m1 @atom:oz -1.050000 15.245817346 24.26954467 5.089327241
    $atom:oz_125 $mol:m1 @atom:oz -1.050000 9.628679753 23.163474345 3.288660574
    $atom:oz_126 $mol:m1 @atom:oz -1.050000 13.880860936 20.708476394 3.288660574
    $atom:oz_127 $mol:m1 @atom:oz -1.050000 10.267269753 24.26954467 5.631333908
    $atom:oz_128 $mol:m1 @atom:oz -1.050000 14.519450936 21.814546719 5.631333908
    $atom:oz_129 $mol:m1 @atom:oz -1.050000 11.632226163 20.708476394 2.030000573999999
    $atom:oz_130 $mol:m1 @atom:oz -1.050000 15.884407346 23.163474345 2.030000573999999
    $atom:oz_131 $mol:m1 @atom:oz -1.050000 12.117953549 23.761921557 3.830667241
    $atom:oz_132 $mol:m1 @atom:oz -1.050000 16.370134733 21.306923606 3.830667241
    $atom:sz_61 $mol:m1 @atom:sz 2.100000 10.548729088 20.820299283 0.8586639079999969
    $atom:sz_62 $mol:m1 @atom:sz 2.100000 14.800910272 23.275297234 0.8586639079999969
    $atom:sz_63 $mol:m1 @atom:sz 2.100000 10.712176827 23.275297234 4.459997241
    $atom:sz_64 $mol:m1 @atom:sz 2.100000 14.96435801 20.820299283 4.459997241
    $atom:sz_65 $mol:m1 @atom:sz 2.100000 8.504362366 22.189348153 2.659330574
    $atom:sz_66 $mol:m1 @atom:sz 2.100000 12.756543549 19.734350202 2.659330574
    $atom:oz_133 $mol:m1 @atom:oz -1.050000 17.647314733 21.306923606 1.487993908000007
    $atom:oz_134 $mol:m1 @atom:oz -1.050000 21.899495916 23.761921557 1.487993908000007
    $atom:oz_135 $mol:m1 @atom:oz -1.050000 19.497998529 21.814546719 5.089327241
    $atom:oz_136 $mol:m1 @atom:oz -1.050000 23.750179712 24.26954467 5.089327241
    $atom:oz_137 $mol:m1 @atom:oz -1.050000 18.133042119 23.163474345 3.288660574
    $atom:oz_138 $mol:m1 @atom:oz -1.050000 22.385223302 20.708476394 3.288660574
    $atom:oz_139 $mol:m1 @atom:oz -1.050000 18.771632119 24.26954467 5.631333908
    $atom:oz_140 $mol:m1 @atom:oz -1.050000 23.023813302 21.814546719 5.631333908
    $atom:oz_141 $mol:m1 @atom:oz -1.050000 20.136588529 20.708476394 2.030000573999999
    $atom:oz_142 $mol:m1 @atom:oz -1.050000 24.388769712 23.163474345 2.030000573999999
    $atom:oz_143 $mol:m1 @atom:oz -1.050000 20.622315916 23.761921557 3.830667241
    $atom:oz_144 $mol:m1 @atom:oz -1.050000 24.874497099 21.306923606 3.830667241
    $atom:sz_67 $mol:m1 @atom:sz 2.100000 19.053091455 20.820299283 0.8586639079999969
    $atom:sz_68 $mol:m1 @atom:sz 2.100000 23.305272638 23.275297234 0.8586639079999969
    $atom:sz_69 $mol:m1 @atom:sz 2.100000 19.216539194 23.275297234 4.459997241
    $atom:sz_70 $mol:m1 @atom:sz 2.100000 23.468720377 20.820299283 4.459997241
    $atom:sz_71 $mol:m1 @atom:sz 2.100000 17.008724733 22.189348153 2.659330574
    $atom:sz_72 $mol:m1 @atom:sz 2.100000 21.260905916 19.734350202 2.659330574
    $atom:oz_145 $mol:m1 @atom:oz -1.050000 0.63859 26.216919507 1.487993908000007
    $atom:oz_146 $mol:m1 @atom:oz -1.050000 4.890771183 28.671917458 1.487993908000007
    $atom:oz_147 $mol:m1 @atom:oz -1.050000 2.489273797 26.724542621 5.089327241
    $atom:oz_148 $mol:m1 @atom:oz -1.050000 6.74145498 29.179540571 5.089327241
    $atom:oz_149 $mol:m1 @atom:oz -1.050000 1.124317387 28.073470246 3.288660574
    $atom:oz_150 $mol:m1 @atom:oz -1.050000 5.37649857 25.618472295 3.288660574
    $atom:oz_151 $mol:m1 @atom:oz -1.050000 1.762907387 29.179540571 5.631333908
    $atom:oz_152 $mol:m1 @atom:oz -1.050000 6.01508857 26.724542621 5.631333908
    $atom:oz_153 $mol:m1 @atom:oz -1.050000 3.127863797 25.618472295 2.030000573999999
    $atom:oz_154 $mol:m1 @atom:oz -1.050000 7.38004498 28.073470246 2.030000573999999
    $atom:oz_155 $mol:m1 @atom:oz -1.050000 3.613591183 28.671917458 3.830667241
    $atom:oz_156 $mol:m1 @atom:oz -1.050000 7.865772366 26.216919507 3.830667241
    $atom:sz_73 $mol:m1 @atom:sz 2.100000 2.044366722 25.730295185 0.8586639079999969
    $atom:sz_74 $mol:m1 @atom:sz 2.100000 6.296547905 28.185293135 0.8586639079999969
    $atom:sz_75 $mol:m1 @atom:sz 2.100000 2.207814461 28.185293135 4.459997241
    $atom:sz_76 $mol:m1 @atom:sz 2.100000 6.459995644 25.730295185 4.459997241
    $atom:sz_77 $mol:m1 @atom:sz 2.100000 0.0 27.099344054 2.659330574
    $atom:sz_78 $mol:m1 @atom:sz 2.100000 4.252181183 24.644346103 2.659330574
    $atom:oz_157 $mol:m1 @atom:oz -1.050000 9.142952366 26.216919507 1.487993908000007
    $atom:oz_158 $mol:m1 @atom:oz -1.050000 13.395133549 28.671917458 1.487993908000007
    $atom:oz_159 $mol:m1 @atom:oz -1.050000 10.993636163 26.724542621 5.089327241
    $atom:oz_160 $mol:m1 @atom:oz -1.050000 15.245817346 29.179540571 5.089327241
    $atom:oz_161 $mol:m1 @atom:oz -1.050000 9.628679753 28.073470246 3.288660574
    $atom:oz_162 $mol:m1 @atom:oz -1.050000 13.880860936 25.618472295 3.288660574
    $atom:oz_163 $mol:m1 @atom:oz -1.050000 10.267269753 29.179540571 5.631333908
    $atom:oz_164 $mol:m1 @atom:oz -1.050000 14.519450936 26.724542621 5.631333908
    $atom:oz_165 $mol:m1 @atom:oz -1.050000 11.632226163 25.618472295 2.030000573999999
    $atom:oz_166 $mol:m1 @atom:oz -1.050000 15.884407346 28.073470246 2.030000573999999
    $atom:oz_167 $mol:m1 @atom:oz -1.050000 12.117953549 28.671917458 3.830667241
    $atom:oz_168 $mol:m1 @atom:oz -1.050000 16.370134733 26.216919507 3.830667241
    $atom:sz_79 $mol:m1 @atom:sz 2.100000 10.548729088 25.730295185 0.8586639079999969
    $atom:sz_80 $mol:m1 @atom:sz 2.100000 14.800910272 28.185293135 0.8586639079999969
    $atom:sz_81 $mol:m1 @atom:sz 2.100000 10.712176827 28.185293135 4.459997241
    $atom:sz_82 $mol:m1 @atom:sz 2.100000 14.96435801 25.730295185 4.459997241
    $atom:sz_83 $mol:m1 @atom:sz 2.100000 8.504362366 27.099344054 2.659330574
    $atom:sz_84 $mol:m1 @atom:sz 2.100000 12.756543549 24.644346103 2.659330574
    $atom:oz_169 $mol:m1 @atom:oz -1.050000 17.647314733 26.216919507 1.487993908000007
    $atom:oz_170 $mol:m1 @atom:oz -1.050000 21.899495916 28.671917458 1.487993908000007
    $atom:oz_171 $mol:m1 @atom:oz -1.050000 19.497998529 26.724542621 5.089327241
    $atom:oz_172 $mol:m1 @atom:oz -1.050000 23.750179712 29.179540571 5.089327241
    $atom:oz_173 $mol:m1 @atom:oz -1.050000 18.133042119 28.073470246 3.288660574
    $atom:oz_174 $mol:m1 @atom:oz -1.050000 22.385223302 25.618472295 3.288660574
    $atom:oz_175 $mol:m1 @atom:oz -1.050000 18.771632119 29.179540571 5.631333908
    $atom:oz_176 $mol:m1 @atom:oz -1.050000 23.023813302 26.724542621 5.631333908
    $atom:oz_177 $mol:m1 @atom:oz -1.050000 20.136588529 25.618472295 2.030000573999999
    $atom:oz_178 $mol:m1 @atom:oz -1.050000 24.388769712 28.073470246 2.030000573999999
    $atom:oz_179 $mol:m1 @atom:oz -1.050000 20.622315916 28.671917458 3.830667241
    $atom:oz_180 $mol:m1 @atom:oz -1.050000 24.874497099 26.216919507 3.830667241
    $atom:sz_85 $mol:m1 @atom:sz 2.100000 19.053091455 25.730295185 0.8586639079999969
    $atom:sz_86 $mol:m1 @atom:sz 2.100000 23.305272638 28.185293135 0.8586639079999969
    $atom:sz_87 $mol:m1 @atom:sz 2.100000 19.216539194 28.185293135 4.459997241
    $atom:sz_88 $mol:m1 @atom:sz 2.100000 23.468720377 25.730295185 4.459997241
    $atom:sz_89 $mol:m1 @atom:sz 2.100000 17.008724733 27.099344054 2.659330574
    $atom:sz_90 $mol:m1 @atom:sz 2.100000 21.260905916 24.644346103 2.659330574
    $atom:oz_181 $mol:m1 @atom:oz -1.050000 0.63859 31.126915409 1.487993908000007
    $atom:oz_182 $mol:m1 @atom:oz -1.050000 4.890771183 33.58191336 1.487993908000007
    $atom:oz_183 $mol:m1 @atom:oz -1.050000 2.489273797 31.634538522 5.089327241
    $atom:oz_184 $mol:m1 @atom:oz -1.050000 6.74145498 34.089536473 5.089327241
    $atom:oz_185 $mol:m1 @atom:oz -1.050000 1.124317387 32.983466148 3.288660574
    $atom:oz_186 $mol:m1 @atom:oz -1.050000 5.37649857 30.528468197 3.288660574
    $atom:oz_187 $mol:m1 @atom:oz -1.050000 1.762907387 34.089536473 5.631333908
    $atom:oz_188 $mol:m1 @atom:oz -1.050000 6.01508857 31.634538522 5.631333908
    $atom:oz_189 $mol:m1 @atom:oz -1.050000 3.127863797 30.528468197 2.030000573999999
    $atom:oz_190 $mol:m1 @atom:oz -1.050000 7.38004498 32.983466148 2.030000573999999
    $atom:oz_191 $mol:m1 @atom:oz -1.050000 3.613591183 33.58191336 3.830667241
    $atom:oz_192 $mol:m1 @atom:oz -1.050000 7.865772366 31.126915409 3.830667241
    $atom:sz_91 $mol:m1 @atom:sz 2.100000 2.044366722 30.640291086 0.8586639079999969
    $atom:sz_92 $mol:m1 @atom:sz 2.100000 6.296547905 33.095289037 0.8586639079999969
    $atom:sz_93 $mol:m1 @atom:sz 2.100000 2.207814461 33.095289037 4.459997241
    $atom:sz_94 $mol:m1 @atom:sz 2.100000 6.459995644 30.640291086 4.459997241
    $atom:sz_95 $mol:m1 @atom:sz 2.100000 0.0 32.009339956 2.659330574
    $atom:sz_96 $mol:m1 @atom:sz 2.100000 4.252181183 29.554342005 2.659330574
    $atom:oz_193 $mol:m1 @atom:oz -1.050000 9.142952366 31.126915409 1.487993908000007
    $atom:oz_194 $mol:m1 @atom:oz -1.050000 13.395133549 33.58191336 1.487993908000007
    $atom:oz_195 $mol:m1 @atom:oz -1.050000 10.993636163 31.634538522 5.089327241
    $atom:oz_196 $mol:m1 @atom:oz -1.050000 15.245817346 34.089536473 5.089327241
    $atom:oz_197 $mol:m1 @atom:oz -1.050000 9.628679753 32.983466148 3.288660574
    $atom:oz_198 $mol:m1 @atom:oz -1.050000 13.880860936 30.528468197 3.288660574
    $atom:oz_199 $mol:m1 @atom:oz -1.050000 10.267269753 34.089536473 5.631333908
    $atom:oz_200 $mol:m1 @atom:oz -1.050000 14.519450936 31.634538522 5.631333908
    $atom:oz_201 $mol:m1 @atom:oz -1.050000 11.632226163 30.528468197 2.030000573999999
    $atom:oz_202 $mol:m1 @atom:oz -1.050000 15.884407346 32.983466148 2.030000573999999
    $atom:oz_203 $mol:m1 @atom:oz -1.050000 12.117953549 33.58191336 3.830667241
    $atom:oz_204 $mol:m1 @atom:oz -1.050000 16.370134733 31.126915409 3.830667241
    $atom:sz_97 $mol:m1 @atom:sz 2.100000 10.548729088 30.640291086 0.8586639079999969
    $atom:sz_98 $mol:m1 @atom:sz 2.100000 14.800910272 33.095289037 0.8586639079999969
    $atom:sz_99 $mol:m1 @atom:sz 2.100000 10.712176827 33.095289037 4.459997241
    $atom:sz_100 $mol:m1 @atom:sz 2.100000 14.96435801 30.640291086 4.459997241
    $atom:sz_101 $mol:m1 @atom:sz 2.100000 8.504362366 32.009339956 2.659330574
    $atom:sz_102 $mol:m1 @atom:sz 2.100000 12.756543549 29.554342005 2.659330574
    $atom:oz_205 $mol:m1 @atom:oz -1.050000 17.647314733 31.126915409 1.487993908000007
    $atom:oz_206 $mol:m1 @atom:oz -1.050000 21.899495916 33.58191336 1.487993908000007
    $atom:oz_207 $mol:m1 @atom:oz -1.050000 19.497998529 31.634538522 5.089327241
    $atom:oz_208 $mol:m1 @atom:oz -1.050000 23.750179712 34.089536473 5.089327241
    $atom:oz_209 $mol:m1 @atom:oz -1.050000 18.133042119 32.983466148 3.288660574
    $atom:oz_210 $mol:m1 @atom:oz -1.050000 22.385223302 30.528468197 3.288660574
    $atom:oz_211 $mol:m1 @atom:oz -1.050000 18.771632119 34.089536473 5.631333908
    $atom:oz_212 $mol:m1 @atom:oz -1.050000 23.023813302 31.634538522 5.631333908
    $atom:oz_213 $mol:m1 @atom:oz -1.050000 20.136588529 30.528468197 2.030000573999999
    $atom:oz_214 $mol:m1 @atom:oz -1.050000 24.388769712 32.983466148 2.030000573999999
    $atom:oz_215 $mol:m1 @atom:oz -1.050000 20.622315916 33.58191336 3.830667241
    $atom:oz_216 $mol:m1 @atom:oz -1.050000 24.874497099 31.126915409 3.830667241
    $atom:sz_103 $mol:m1 @atom:sz 2.100000 19.053091455 30.640291086 0.8586639079999969
    $atom:sz_104 $mol:m1 @atom:sz 2.100000 23.305272638 33.095289037 0.8586639079999969
    $atom:sz_105 $mol:m1 @atom:sz 2.100000 19.216539194 33.095289037 4.459997241
    $atom:sz_106 $mol:m1 @atom:sz 2.100000 23.468720377 30.640291086 4.459997241
    $atom:sz_107 $mol:m1 @atom:sz 2.100000 17.008724733 32.009339956 2.659330574
    $atom:sz_108 $mol:m1 @atom:sz 2.100000 21.260905916 29.554342005 2.659330574
    $atom:oz_217 $mol:m1 @atom:oz -1.050000 0.63859 36.03691131 1.487993908000007
    $atom:oz_218 $mol:m1 @atom:oz -1.050000 4.890771183 38.491909261 1.487993908000007
    $atom:oz_219 $mol:m1 @atom:oz -1.050000 2.489273797 36.544534424 5.089327241
    $atom:oz_220 $mol:m1 @atom:oz -1.050000 6.74145498 38.999532374 5.089327241
    $atom:oz_221 $mol:m1 @atom:oz -1.050000 1.124317387 37.893462049 3.288660574
    $atom:oz_222 $mol:m1 @atom:oz -1.050000 5.37649857 35.438464098 3.288660574
    $atom:oz_223 $mol:m1 @atom:oz -1.050000 1.762907387 38.999532374 5.631333908
    $atom:oz_224 $mol:m1 @atom:oz -1.050000 6.01508857 36.544534424 5.631333908
    $atom:oz_225 $mol:m1 @atom:oz -1.050000 3.127863797 35.438464098 2.030000573999999
    $atom:oz_226 $mol:m1 @atom:oz -1.050000 7.38004498 37.893462049 2.030000573999999
    $atom:oz_227 $mol:m1 @atom:oz -1.050000 3.613591183 38.491909261 3.830667241
    $atom:oz_228 $mol:m1 @atom:oz -1.050000 7.865772366 36.03691131 3.830667241
    $atom:sz_109 $mol:m1 @atom:sz 2.100000 2.044366722 35.550286988 0.8586639079999969
    $atom:sz_110 $mol:m1 @atom:sz 2.100000 6.296547905 38.005284938 0.8586639079999969
    $atom:sz_111 $mol:m1 @atom:sz 2.100000 2.207814461 38.005284938 4.459997241
    $atom:sz_112 $mol:m1 @atom:sz 2.100000 6.459995644 35.550286988 4.459997241
    $atom:sz_113 $mol:m1 @atom:sz 2.100000 0.0 36.919335857 2.659330574
    $atom:sz_114 $mol:m1 @atom:sz 2.100000 4.252181183 34.464337906 2.659330574
    $atom:oz_229 $mol:m1 @atom:oz -1.050000 9.142952366 36.03691131 1.487993908000007
    $atom:oz_230 $mol:m1 @atom:oz -1.050000 13.395133549 38.491909261 1.487993908000007
    $atom:oz_231 $mol:m1 @atom:oz -1.050000 10.993636163 36.544534424 5.089327241
    $atom:oz_232 $mol:m1 @atom:oz -1.050000 15.245817346 38.999532374 5.089327241
    $atom:oz_233 $mol:m1 @atom:oz -1.050000 9.628679753 37.893462049 3.288660574
    $atom:oz_234 $mol:m1 @atom:oz -1.050000 13.880860936 35.438464098 3.288660574
    $atom:oz_235 $mol:m1 @atom:oz -1.050000 10.267269753 38.999532374 5.631333908
    $atom:oz_236 $mol:m1 @atom:oz -1.050000 14.519450936 36.544534424 5.631333908